dx = array1d(1..23, [3, 3, 3, 3, 3, 3, 3, 3, 3, 3, 3, 3, 3, 3, 3, 4, 4, 4,
    4, 4, 4, 4, 7]);

dy = array1d(1..23, [3, 4, 5, 6, 7, 8, 9, 10, 13, 14, 15, 17, 24, 30, 33,
    3, 4, 6, 10, 12, 14, 17, 33]);

w = 33;

n = 23;

